tolerance 2.2
filetype xyz
seed 12345
output /home/jiaao/quicktest/zeoinsert/runs/packmol_fo8iqzxg/packed.xyz

structure /home/jiaao/quicktest/zeoinsert/runs/packmol_fo8iqzxg/framework.xyz
  number 1
  fixed 0. 0. 0. 0. 0. 0.
end structure

structure /home/jiaao/quicktest/zeoinsert/runs/packmol_fo8iqzxg/guest_0.xyz
  number 8
  inside box 0.000 0.000 0.000 24.345 24.345 24.345
end structure

structure /home/jiaao/quicktest/zeoinsert/runs/packmol_fo8iqzxg/guest_1.xyz
  number 8
  inside box 0.000 0.000 0.000 24.345 24.345 24.345
end structure

structure /home/jiaao/quicktest/zeoinsert/runs/packmol_fo8iqzxg/guest_2.xyz
  number 4
  inside box 0.000 0.000 0.000 24.345 24.345 24.345
end structure
